70 1130
2 4 5 7 9 11 16 17 18 20 21 23 25 34 36 38 41 42 44 45 47 48 49 51 52 53 56 57 60 61 62 63 64 68 69
7 10 11 13 15 16 17 18 19 22 24 25 26 27 32 37 40 42 43 45 46 47 48 49 51 52 53 54 55 60 62 65 67 69
0 5 7 10 11 12 14 16 18 19 24 27 31 32 34 35 36 37 38 39 40 42 43 44 45 47 48 56 57 59 60 63 64 65 68
4 5 8 9 10 11 12 15 17 18 20 21 22 26 27 28 31 32 33 36 37 38 39 42 46 49 58 60 63 64 68
0 3 5 6 8 10 11 15 16 17 18 19 20 21 22 23 24 26 27 29 30 32 33 38 39 40 41 47 52 53 55 56 57 58 61 62 64 66 68
0 2 3 4 7 11 12 13 18 19 22 23 25 27 28 29 32 37 39 40 41 42 47 48 52 55 58 59 63 64
4 7 8 12 14 17 24 26 27 30 33 36 38 39 42 43 45 48 50 52 53 54 55 56 58 60 61 62 65 67 69
0 1 2 5 6 8 11 14 20 21 22 23 25 26 29 30 35 37 43 44 45 47 48 50 51 52 54 56 57 60 64 65 66 67 68
3 4 6 7 9 10 11 13 16 20 22 23 24 26 27 29 30 31 34 36 38 42 43 46 49 51 52 53 54 56 58 60 64 65
0 3 8 14 16 18 23 24 28 30 31 33 35 37 39 42 46 50 51 53 58 61 66
1 2 3 4 8 11 12 13 15 17 18 19 22 23 27 33 35 36 38 40 44 48 50 53 54 57 58 59 60 61 63 65 66 67 69
0 1 2 3 4 5 7 8 10 13 19 24 25 26 27 31 32 34 35 38 43 53 54 57 59 62 63 64 68
2 3 5 6 10 15 18 20 22 23 24 25 26 27 28 30 31 32 33 35 38 39 41 44 46 53 56 58 60 62 64 67 68 69
1 5 8 10 11 14 16 17 22 23 25 26 28 30 31 32 33 36 37 38 39 42 45 46 51 52 56 58 60 61 64 65 66 67 68
2 6 7 9 13 15 17 20 22 23 24 26 29 34 39 40 41 43 46 48 50 52 56 62 66 67 68
1 3 4 10 12 14 16 17 18 24 29 30 35 39 41 43 46 47 49 51 53 54 57 58 64 66 67 68
0 1 2 4 8 9 13 15 18 19 23 24 26 27 28 30 33 36 37 38 39 41 44 46 48 49 50 54 55 58 59 60 62 63 64 67 69
0 1 3 4 6 10 13 14 15 21 24 25 27 28 29 31 33 34 36 37 39 41 42 45 47 49 50 51 53 54 55 56 57 58 62 63 64 66 68 69
0 1 2 3 4 5 9 10 12 15 16 20 22 23 26 31 32 33 34 37 40 43 45 48 51 52 54 55 56 60 61 62 63 65 66 68 69
1 2 4 5 10 11 16 20 21 22 23 26 28 30 31 33 35 37 38 39 43 46 52 54 57 58 59 60 61 62 66 68
0 3 4 7 8 12 14 18 19 23 25 27 29 31 32 33 36 38 39 40 41 43 44 45 49 50 54 57 59 61 62 64 68 69
0 3 4 7 17 19 24 25 26 28 31 32 34 37 38 47 48 49 50 51 54 56 57 58 59 62 63 66 67 69
1 3 4 5 7 8 10 12 13 14 18 19 23 24 25 28 31 36 37 40 46 47 50 51 52 53 54 55 56 60 65 66 68
0 4 5 7 8 9 10 12 13 14 16 18 19 20 22 24 25 26 27 28 30 34 36 37 39 40 42 43 49 50 51 56 58 61 62 63 65 66 67 69
1 2 4 6 8 9 11 12 14 15 16 17 21 22 23 30 32 35 38 39 40 42 44 45 48 51 61 65 66 69
0 1 5 7 11 12 13 17 20 21 22 23 28 29 30 31 36 38 40 41 44 46 47 48 50 51 52 53 54 55 56 57 59 60 61 62 67 69
1 3 4 6 7 8 11 12 13 14 16 18 19 21 23 30 32 33 36 37 38 39 40 42 43 44 45 46 47 48 50 51 52 54 58 60 65 66 67
1 2 3 4 5 6 8 10 11 12 16 17 20 23 28 30 34 35 37 38 40 52 58 61 62 64 65 66 68
3 5 9 12 13 16 17 19 21 22 23 25 27 30 31 33 34 46 47 50 51 53 55 57 59 65 66 68
4 5 7 8 14 15 17 20 25 31 32 33 34 36 37 39 41 42 43 44 46 47 48 49 50 55 57 60 63 66 69
4 6 7 8 9 12 13 15 16 19 23 24 25 26 27 28 34 35 40 47 51 53 55 57 58 59 60 62 63
2 3 8 9 11 12 13 17 18 19 20 21 22 25 28 29 33 35 36 38 41 44 45 46 47 49 50 51 55 59 61 62 63 64 66 67 68
1 2 3 4 5 11 12 13 18 20 21 24 26 29 34 35 36 39 40 41 43 44 46 47 53 56 57 61 62 63 67
3 4 6 9 10 12 13 16 17 18 19 20 26 28 29 31 34 36 38 39 41 42 43 45 46 47 49 52 55 56 59 62 63 68
0 2 8 11 14 17 18 21 23 27 28 29 30 32 33 35 37 38 39 40 42 45 47 50 52 53 55 61 62 63 65 66 67 68
2 7 9 10 11 12 15 19 24 27 30 31 32 34 38 39 42 44 46 48 51 52 54 56 57 65 66 67
0 2 3 6 8 10 13 16 17 20 22 23 25 26 29 31 32 33 37 38 39 41 46 49 54 55 63 64 65 66 68
1 2 3 5 7 9 13 16 17 18 19 21 22 23 26 27 29 34 36 38 39 41 43 45 54 56 60 62 64 66 69
0 2 3 4 6 8 10 11 12 13 16 19 20 21 24 25 26 27 31 33 34 35 36 37 39 40 41 42 43 44 46 51 53 55 56 58 60 63 64 65 68
2 3 4 5 6 9 12 13 14 15 16 17 19 20 23 24 26 29 32 33 34 35 36 37 38 41 49 50 51 52 53 56 58 60 61 63
1 2 4 5 10 14 18 20 22 23 24 25 26 27 30 32 34 38 42 46 49 50 53 56 58 59 61 62 63 65 66 67
0 4 5 12 14 15 16 17 20 25 29 31 32 33 36 37 38 39 43 44 45 50 51 53 54 56 58 59 60 65 66 67
0 1 2 3 5 6 8 9 13 17 23 24 26 29 33 34 35 38 40 45 47 49 50 55 58 62 63 64 68 69
1 2 6 7 8 11 14 15 18 19 20 23 26 29 32 33 37 38 41 44 47 50 55 56 61 64 67 69
0 2 7 10 12 16 20 24 25 26 29 31 32 35 38 41 43 45 47 48 54 55 57 58 59 60 63
0 1 2 6 7 13 17 18 20 24 26 31 33 34 37 41 42 44 47 49 50 51 54 55 57 61 63 64 65 67 68 69
1 3 8 9 12 13 14 15 16 19 22 25 26 28 29 31 32 33 35 36 38 40 47 49 51 52 54 57 59 61 62 68
0 1 2 4 5 7 15 17 21 22 25 26 28 29 30 31 32 33 34 42 43 44 45 46 52 54 57 59 63 64 67 68
0 1 2 5 6 7 10 14 16 18 21 24 25 26 29 35 44 49 50 52 54 55 56 59 64 68 69
0 1 3 8 15 16 17 20 21 23 29 31 33 36 39 40 42 45 46 48 50 51 53 55 59 60 64 66 69
6 7 9 10 14 16 17 20 21 22 23 25 26 28 29 31 34 39 40 41 42 43 45 48 49 54 55 60 65 66 67 69
0 1 7 8 9 13 15 17 18 21 22 23 24 25 26 28 30 31 35 38 39 41 45 46 49 55 58 60 61 64 65 67 68 69
0 1 4 5 6 7 8 13 14 18 19 22 25 26 27 33 34 35 39 46 47 48 54 60 61 62 63 65
0 1 4 6 8 9 10 11 12 15 17 22 25 28 30 32 34 38 39 40 41 49 58 59 60 66 67 69
1 6 7 8 10 11 15 16 17 18 19 20 21 22 25 26 35 36 37 41 44 45 46 47 48 50 52 55 60 61 63 66 69
1 4 5 6 16 17 18 22 25 28 29 30 31 33 34 36 38 42 43 44 45 48 49 50 51 54 57 58 59 64
0 2 4 6 7 8 12 13 14 17 18 21 22 23 25 32 33 35 37 38 39 40 41 43 48 57 58 59 60 61 63 66
0 2 4 7 10 11 15 17 19 20 21 25 28 29 30 32 35 44 45 46 47 55 56 59 60 64 65 66 67
3 4 5 6 8 9 10 12 13 15 16 17 19 21 23 26 27 30 38 39 40 41 42 44 51 53 55 56 59 60 61 64 67 69
2 5 10 11 16 19 20 21 25 28 30 31 33 40 41 44 46 47 48 49 53 55 56 57 58 62 67 69
0 1 2 3 6 7 8 10 12 13 16 18 19 22 25 26 29 30 37 38 39 41 44 49 50 51 52 53 54 56 57 58 61 67 68
0 4 6 9 10 13 18 19 20 23 24 25 27 31 32 34 39 40 43 45 46 51 52 54 56 58 60 62 63 64 66
0 1 4 6 11 12 14 16 17 18 19 20 21 23 25 27 30 31 32 33 34 37 40 42 46 52 59 61 65 66 67
0 2 3 5 10 11 16 17 18 21 23 29 30 31 32 33 34 36 38 39 40 42 44 45 47 52 54 56 61 64 65 66 68
0 2 3 4 5 7 8 11 12 13 15 16 17 20 27 31 36 37 38 42 43 45 47 48 49 51 55 57 58 61 63 67 68
1 2 6 7 8 10 13 18 22 23 24 26 27 28 34 35 36 38 40 41 45 50 51 52 57 62 63 66 67 68 69
4 7 9 10 13 14 15 17 18 19 21 22 23 24 26 27 28 29 31 34 35 36 37 40 41 49 50 53 54 56 57 61 62 63 65 68
1 6 7 10 12 13 14 15 16 21 23 25 26 31 32 34 35 40 41 43 45 47 50 51 53 57 58 59 60 62 64 65 69
0 2 3 4 7 11 12 13 14 15 17 18 19 20 22 27 28 31 33 34 36 38 42 45 46 47 48 51 60 63 64 65 66 69
0 1 6 10 12 16 17 18 20 21 23 24 25 29 37 42 43 45 48 49 50 51 53 54 58 59 65 67 68
